(set-info :Origin "This instance was generated by: BanditFuzz-- an RL fuzzer for SMT solvers" )
(set-info :Author "Joe Scott, Fed Mora, Vijay Ganesh" )
(set-info :Contact "Joe Scott, joseph.scott@uwaterloo.ca")
(set-logic QF_BV)
(declare-const bool_0 Bool)
(declare-const bool_1 Bool)
(declare-const bool_2 Bool)
(declare-const bool_3 Bool)
(declare-const bool_4 Bool)
(declare-const bv_0 (_ BitVec 32))
(declare-const bv_1 (_ BitVec 32))
(declare-const bv_2 (_ BitVec 32))
(declare-const bv_3 (_ BitVec 32))
(declare-const bv_4 (_ BitVec 32))
(assert (or (bvsge (bvxnor #xeca4c345  bv_0) (bvudiv #x32aa1817  bv_4)) (bvule (bvnand #x483f164b  bv_3) (bvlshr #x32f38cf3  bv_0))))
(assert (not (or (and bool_2 true) (bvsgt #x42481d86  bv_1))))
(assert (and (bvsle (bvxor #xfb5ca181  bv_0) (bvudiv #xabd0a62c  #xdf77d1b0 )) (xor (xor true true) (bvslt bv_0 #x3736ad47 ))))
(assert (bvuge (bvsrem (bvor bv_1 #x68e278ec ) (bvmul bv_3 bv_0)) (bvor (bvashr bv_4 #xed82323b ) (bvlshr #x4d01ed3d  #x0e9f0c16 ))))
(assert (=> (not (bvugt #x2b5a1035  bv_2)) (bvsge (bvashr bv_4 #x0772b57f ) (bvlshr #x9c661632  bv_0))))
(check-sat)
(exit)
